NAME : random_1
COMMENT : 60 random nodes
TYPE : TSP
DIMENSION : 60
EDGE_WEIGHT_TYPE : EUC_2D
NODE_COORD_SECTION
1 516 689
2 277 809
3 994 809
4 752 857
5 355 159
6 333 848
7 248 560
8 561 721
9 893 394
10 862 548
11 616 545
12 806 285
13 135 453
14 687 174
15 278 825
16 798 30
17 323 45
18 117 97
19 485 471
20 195 352
21 415 400
22 351 431
23 247 47
24 484 394
25 512 455
26 308 158
27 127 925
28 221 650
29 379 817
30 784 723
31 76 629
32 611 925
33 855 110
34 532 333
35 394 9
36 262 348
37 912 921
38 159 406
39 237 310
40 947 950
41 810 299
42 48 358
43 292 559
44 494 727
45 150 622
46 622 420
47 678 131
48 4 512
49 946 617
50 378 158
51 968 942
52 45 528
53 570 599
54 630 697
55 930 579
56 529 838
57 48 969
58 98 372
59 530 633
60 437 79
EOF